8455
0 0 0 1 1 0 1 1 0 0 0 1 0 1 1 0 0 0 1 0 
18 18 18 18 18 18 18 6 6 6 6 6 6 6 6 3 3 3 3 3 3 4 4 4 4 4 4 4 4 14 14 14 14 18 14 18 18 18 18 18 3 3 11 3 18 11 18 7 18 18 13 13 11 18 18 18 11 6 7 7 3 3 6 13 13 13 11 11 7 7 18 3 13 13 14 11 11 11 7 7 
